Scheduling nurses/nurse2.sol
# Solution for model nurse
# Objective value = 40
Z 40
S_1 9
S_2 6
S_3 1
S_4 17
S_5 1
S_6 26
S_7 8
S_8 4
S_9 0
S_10 0
S_11 0
S_12 8
ET_1 6
ET_2 0
ET_3 0
ET_4 0
ET_5 1
ET_6 18
ET_7 8
ET_8 0
ET_9 0
ET_10 0
ET_11 0
ET_12 7
